c {"clauses":167,"maxClauseSize":4,"minClauseSize":1,"totalLiterals":455,"variables":64}
c Excepted from https://github.com/Black-Phoenix/4x4-Sudoku-Dataset/tree/master
p cnf 64 167
1 0
2 0
3 0
4 0
5 0
6 0
7 0
8 9 10 11 0
-9 -8 0
-10 -8 0
-10 -9 0
-11 -8 0
-11 -9 0
-11 -10 0
12 13 14 15 0
-13 -12 0
-14 -12 0
-14 -13 0
-15 -12 0
-15 -13 0
-15 -14 0
16 17 18 19 0
-17 -16 0
-18 -16 0
-18 -17 0
-19 -16 0
-19 -17 0
-19 -18 0
20 6 21 22 0
-6 -20 0
-21 -20 0
-21 -6 0
-22 -20 0
-22 -6 0
-22 -21 0
23 24 1 25 0
-24 -23 0
-1 -23 0
-1 -24 0
-25 -23 0
-25 -24 0
-25 -1 0
26 27 28 29 0
-27 -26 0
-28 -26 0
-28 -27 0
-29 -26 0
-29 -27 0
-29 -28 0
30 31 32 5 0
-31 -30 0
-32 -30 0
-32 -31 0
-5 -30 0
-5 -31 0
-5 -32 0
7 33 34 35 0
-33 -7 0
-34 -7 0
-34 -33 0
-35 -7 0
-35 -33 0
-35 -34 0
36 2 37 38 0
-2 -36 0
-37 -36 0
-37 -2 0
-38 -36 0
-38 -2 0
-38 -37 0
39 40 4 41 0
-40 -39 0
-4 -39 0
-4 -40 0
-41 -39 0
-41 -40 0
-41 -4 0
42 43 44 45 0
-43 -42 0
-44 -42 0
-44 -43 0
-45 -42 0
-45 -43 0
-45 -44 0
46 47 48 49 0
-47 -46 0
-48 -46 0
-48 -47 0
-49 -46 0
-49 -47 0
-49 -48 0
3 50 51 52 0
-50 -3 0
-51 -3 0
-51 -50 0
-52 -3 0
-52 -50 0
-52 -51 0
53 54 55 56 0
-54 -53 0
-55 -53 0
-55 -54 0
-56 -53 0
-56 -54 0
-56 -55 0
57 58 59 60 0
-58 -57 0
-59 -57 0
-59 -58 0
-60 -57 0
-60 -58 0
-60 -59 0
61 62 63 64 0
-62 -61 0
-63 -61 0
-63 -62 0
-64 -61 0
-64 -62 0
-64 -63 0
8 23 36 3 0
9 24 2 50 0
10 1 37 51 0
11 25 38 52 0
12 26 39 53 0
13 27 40 54 0
14 28 4 55 0
15 29 41 56 0
16 30 42 57 0
17 31 43 58 0
18 32 44 59 0
19 5 45 60 0
20 7 46 61 0
6 33 47 62 0
21 34 48 63 0
22 35 49 64 0
8 12 16 20 0
9 13 17 6 0
10 14 18 21 0
11 15 19 22 0
23 26 30 7 0
24 27 31 33 0
1 28 32 34 0
25 29 5 35 0
36 39 42 46 0
2 40 43 47 0
37 4 44 48 0
38 41 45 49 0
3 53 57 61 0
50 54 58 62 0
51 55 59 63 0
52 56 60 64 0
8 12 23 26 0
9 13 24 27 0
10 14 1 28 0
11 15 25 29 0
16 20 30 7 0
17 6 31 33 0
18 21 32 34 0
19 22 5 35 0
36 39 3 53 0
2 40 50 54 0
37 4 51 55 0
38 41 52 56 0
42 46 57 61 0
43 47 58 62 0
44 48 59 63 0
45 49 60 64 0
